sing20211115.00
TTAA  65001 48698
99007 27025 05508 00100 26822 06502 92785 23045 31004
85518 18249 25512 70158 10460 28514 50588 05327 05012
40760 14940 07519 30972 30150 09531 25100 40359 09539
20247 53556 10045 15425 69548 09554 10659 78961 34014
88119 78758 09058
77999=
TTCC  65001 48698
70862 69767 31019 50063 68782 23018 30375 59784 08560
20633 52786 08568 10098 38589 34006
88842 82358 28510
77168 09591 42758=
TTDD  6500/ 48698
11842 82358 22801 80159 33770 75162 44699 69767 55641 71773
66508 69381 77467 64782 88399 67382 99309 59784 11279 59984
22250 55185 33208 53585 44173 50186 55161 45188 66143 41389
77122 40189 88110 42988 99097 36790 11075 36390
21212 11870 26516 22806 32514 33756 31014 44722 32518 55612
25523 66560 28521 77529 24512 88483 22514 99431 06016 11328
09556 22196 08568 33168 09591 44145 08035 55137 10014 66119
27508 77111 26004 88107 19002 99105 29502 11104 29004 22099
35506 33097 31510 44091 27525 55084 27049 66081 27056 77075
26035=
